RT is False
Default write of storage_offers_DA.csv just to have a file (but constraint should be inactive)
Reading model...
...model read.
creating competitive generators file...
...competitive generators recorded.
Loading data...
.. day-ahead data with real-time VRE data read.
Compiling instance...
...instance created.
Creating Offer Mitigation (model will solve as dispatch if TRUE)...
Solving...

Welcome to IBM(R) ILOG(R) CPLEX(R) Interactive Optimizer 12.8.0.0
  with Simplex, Mixed Integer & Barrier Optimizers
5725-A06 5725-A29 5724-Y48 5724-Y49 5724-Y54 5724-Y55 5655-Y21
Copyright IBM Corp. 1988, 2017.  All Rights Reserved.

Type 'help' for a list of available commands.
Type 'help' followed by a command name for more
information on commands.

CPLEX> Logfile 'cplex.log' closed.
Logfile 'C:\Users\llavi\Desktop\test919\logs\tmpfvqifleb.cplex.log' open.
CPLEX> New value for parallel optimization mode: -1
CPLEX> New value for mixed integer optimality gap tolerance: 0.01
CPLEX> New value for integrality tolerance: 1e-09
CPLEX> New value for feasibility tolerance: 0.01
CPLEX> New value for deterministic time limit in ticks: 75000
CPLEX> Problem 'C:\Users\llavi\Desktop\test919\logs\tmpdwxxegca.pyomo.lp' read.
Read time = 0.08 sec. (3.03 ticks)
CPLEX> Problem name         : C:\Users\llavi\Desktop\test919\logs\tmpdwxxegca.pyomo.lp
Objective sense      : Minimize
Variables            :   26465  [Nneg: 1,  Box: 22000,  Free: 4464]
Objective nonzeros   :    2496
Linear constraints   :   27515  [Less: 14006,  Greater: 4416,  Equal: 9093]
  Nonzeros           :   89171
  RHS nonzeros       :   12269

Variables            : Min LB: -5000.000        Max UB: 1000000.       
Objective nonzeros   : Min   : 15.73158         Max   : 124.0997       
Linear constraints   :
  Nonzeros           : Min   : 0.8500000        Max   : 3000.000       
  RHS nonzeros       : Min   : 0.8000000        Max   : 5000.000       
CPLEX> CPXPARAM_Simplex_Tolerances_Feasibility          0.01
CPXPARAM_Parallel                                -1
CPXPARAM_DetTimeLimit                            75000
CPXPARAM_MIP_Tolerances_MIPGap                   0.01
CPXPARAM_MIP_Tolerances_Integrality              1.0000000000000001e-09
Parallel mode: opportunistic, using up to 4 threads for concurrent optimization.
Tried aggregator 1 time.
LP Presolve eliminated 21401 rows and 15895 columns.
Aggregator did 722 substitutions.
Reduced LP has 5392 rows, 9848 columns, and 31764 nonzeros.
Presolve time = 0.05 sec. (22.46 ticks)

Iteration log . . .
Iteration:     1   Dual objective     =             0.000000
Perturbation started.
Iteration:   101   Dual objective     =             0.000000
Iteration:   359   Dual objective     =             1.352692
Iteration:   630   Dual objective     =             1.976700
Iteration:   957   Dual objective     =             2.154346
Iteration:  1155   Dual objective     =             2.274910
Iteration:  1498   Dual objective     =             2.332401
Iteration:  1808   Dual objective     =             2.364140
Iteration:  2099   Dual objective     =        214542.903441
Iteration:  2372   Dual objective     =        236347.052322
Iteration:  2682   Dual objective     =        351295.227935
Iteration:  2946   Dual objective     =        472929.813001
Iteration:  3311   Dual objective     =        474311.909526
Iteration:  3684   Dual objective     =        481153.159609
Iteration:  4130   Dual objective     =        482889.972773
Removing perturbation.

Dual simplex solved model.


Dual simplex - Optimal:  Objective =  4.8321119837e+05
Solution time =    0.16 sec.  Iterations = 4530 (0)
Deterministic time = 97.76 ticks  (626.67 ticks/sec)

CPLEX> Solution written to file 'C:\Users\llavi\Desktop\test919\logs\tmpre58sekx.cplex.sol'.
CPLEX> Exporting results... 
...storage offer mitigation file created
Converting model to MPEC...
...converted
NOTE: initial MIP solve with only storage competitive to get feasible solution
Solving...

Welcome to IBM(R) ILOG(R) CPLEX(R) Interactive Optimizer 12.8.0.0
  with Simplex, Mixed Integer & Barrier Optimizers
5725-A06 5725-A29 5724-Y48 5724-Y49 5724-Y54 5724-Y55 5655-Y21
Copyright IBM Corp. 1988, 2017.  All Rights Reserved.

Type 'help' for a list of available commands.
Type 'help' followed by a command name for more
information on commands.

CPLEX> Logfile 'cplex.log' closed.
Logfile 'C:\Users\llavi\Desktop\test919\logs\tmpdh5pudcw.cplex.log' open.
CPLEX> New value for parallel optimization mode: -1
CPLEX> New value for mixed integer optimality gap tolerance: 0.01
CPLEX> New value for integrality tolerance: 1e-09
CPLEX> New value for feasibility tolerance: 0.01
CPLEX> New value for deterministic time limit in ticks: 75000
CPLEX> Problem 'C:\Users\llavi\Desktop\test919\logs\tmpgqsafjkh.pyomo.lp' read.
Read time = 0.28 sec. (13.96 ticks)
CPLEX> Problem name         : C:\Users\llavi\Desktop\test919\logs\tmpgqsafjkh.pyomo.lp
Objective sense      : Maximize
Variables            :   53805  [Nneg: 1,  Box: 22000,  Free: 4464,
                                 Binary: 27340]
Objective nonzeros   :    9076
Linear constraints   :  123205  [Less: 41346,  Greater: 59096,  Equal: 22763]
  Nonzeros           :  291703
  RHS nonzeros       :   67487

Variables            : Min LB: -5000.000        Max UB: 1000000.       
Objective nonzeros   : Min   : 0.8000000        Max   : 2500.000       
Linear constraints   :
  Nonzeros           : Min   : 0.8000000        Max   : 1000000.       
  RHS nonzeros       : Min   : 0.8000000        Max   : 1000000.       
CPLEX> CPXPARAM_Simplex_Tolerances_Feasibility          0.01
CPXPARAM_Parallel                                -1
CPXPARAM_DetTimeLimit                            75000
CPXPARAM_MIP_Tolerances_MIPGap                   0.01
CPXPARAM_MIP_Tolerances_Integrality              1.0000000000000001e-09
Tried aggregator 3 times.
MIP Presolve eliminated 88773 rows and 19121 columns.
MIP Presolve added 3350 rows and 0 columns.
MIP Presolve modified 23818 coefficients.
Aggregator did 12946 substitutions.
Reduced MIP has 24836 rows, 21182 columns, and 70798 nonzeros.
Reduced MIP has 8382 binaries, 0 generals, 0 SOSs, and 0 indicators.
Presolve time = 0.28 sec. (167.99 ticks)
Probing fixed 404 vars, tightened 2834 bounds.
Probing time = 3.23 sec. (899.64 ticks)
Tried aggregator 2 times.
MIP Presolve eliminated 914 rows and 809 columns.
MIP Presolve modified 2232 coefficients.
Aggregator did 41 substitutions.
Reduced MIP has 23881 rows, 20332 columns, and 68033 nonzeros.
Reduced MIP has 7978 binaries, 0 generals, 0 SOSs, and 0 indicators.
Presolve time = 0.11 sec. (55.61 ticks)
Probing time = 0.06 sec. (15.78 ticks)
Clique table members: 6452.
MIP emphasis: balance optimality and feasibility.
MIP search method: dynamic search.
Parallel mode: opportunistic, using up to 4 threads.
Root relaxation solution time = 0.64 sec. (568.65 ticks)

        Nodes                                         Cuts/
   Node  Left     Objective  IInf  Best Integer    Best Bound    ItCnt     Gap

      0     0       31.4971   973                     31.4971     3884         
      0     0      -23.4052    66                    Cuts: 54     3906         
      0     0      -23.4052    63                    Cuts: 33     3910         
      0     0      -23.4052    62                    Cuts: 18     3911         
      0     2    infeasible                         -158.7368     4099         
Elapsed time = 14.41 sec. (5155.06 ticks, tree = 0.02 MB, solutions = 0)
     47    14    -6293.1965    20                   -158.7368     5075         
    116    77    -6700.0142     9                   -158.7368     5597         
    188    85     -314.5730    14                   -158.7368     5626         
*   216    81      integral     0     -158.7368     -158.7368     5727    0.00%

Implied bound cuts applied:  3
Flow cuts applied:  22
Gomory fractional cuts applied:  16

Root node processing (before b&c):
  Real time             =   14.06 sec. (5138.71 ticks)
Parallel b&c, 4 threads:
  Real time             =    1.97 sec. (1089.69 ticks)
  Sync time (average)   =    0.23 sec.
  Wait time (average)   =    0.02 sec.
                          ------------
Total (root+branch&cut) =   16.03 sec. (6228.40 ticks)

Solution pool: 1 solution saved.

MIP - Integer optimal solution:  Objective = -1.5873683957e+02
Solution time =   16.03 sec.  Iterations = 9137  Nodes = 245
Deterministic time = 6228.55 ticks  (388.53 ticks/sec)

CPLEX> Incumbent solution written to file 'C:\Users\llavi\Desktop\test919\logs\tmprl4q7l27.cplex.sol'.
CPLEX> NOTE: no warmstart specified for MIP iteration, default behavior is true
NOTE: resolving with all competitive generators using storage-only solution to warmstart
Solving...

Welcome to IBM(R) ILOG(R) CPLEX(R) Interactive Optimizer 12.8.0.0
  with Simplex, Mixed Integer & Barrier Optimizers
5725-A06 5725-A29 5724-Y48 5724-Y49 5724-Y54 5724-Y55 5655-Y21
Copyright IBM Corp. 1988, 2017.  All Rights Reserved.

Type 'help' for a list of available commands.
Type 'help' followed by a command name for more
information on commands.

CPLEX> Logfile 'cplex.log' closed.
Logfile 'C:\Users\llavi\Desktop\test919\logs\tmp04fnzs04.cplex.log' open.
CPLEX> New value for parallel optimization mode: -1
CPLEX> New value for mixed integer optimality gap tolerance: 0.01
CPLEX> New value for integrality tolerance: 1e-09
CPLEX> New value for feasibility tolerance: 0.01
CPLEX> New value for deterministic time limit in ticks: 75000
CPLEX> Problem 'C:\Users\llavi\Desktop\test919\logs\tmpubr1bzz0.pyomo.lp' read.
Read time = 0.30 sec. (13.98 ticks)
CPLEX> MIP start file 'C:\Users\llavi\Desktop\test919\logs\tmp8a18uz3n.cplex.mst' read.
CPLEX> Problem name         : C:\Users\llavi\Desktop\test919\logs\tmpubr1bzz0.pyomo.lp
Objective sense      : Maximize
Variables            :   54525  [Nneg: 1,  Box: 22720,  Free: 4464,
                                 Binary: 27340]
Objective nonzeros   :    9772
Linear constraints   :  123205  [Less: 41346,  Greater: 59096,  Equal: 22763]
  Nonzeros           :  291703
  RHS nonzeros       :   67487

Variables            : Min LB: -5000.000        Max UB: 1000000.       
Objective nonzeros   : Min   : 0.8000000        Max   : 2500.000       
Linear constraints   :
  Nonzeros           : Min   : 0.8000000        Max   : 1000000.       
  RHS nonzeros       : Min   : 0.8000000        Max   : 1000000.       
CPLEX> CPXPARAM_Simplex_Tolerances_Feasibility          0.01
CPXPARAM_Parallel                                -1
CPXPARAM_DetTimeLimit                            75000
CPXPARAM_MIP_Tolerances_MIPGap                   0.01
CPXPARAM_MIP_Tolerances_Integrality              1.0000000000000001e-09
Warning:  No solution found from 1 MIP starts.
Retaining values of one MIP start for possible repair.
Tried aggregator 3 times.
MIP Presolve eliminated 88773 rows and 19841 columns.
MIP Presolve added 3350 rows and 0 columns.
MIP Presolve modified 23818 coefficients.
Aggregator did 12946 substitutions.
Reduced MIP has 24836 rows, 21182 columns, and 70798 nonzeros.
Reduced MIP has 8382 binaries, 0 generals, 0 SOSs, and 0 indicators.
Presolve time = 0.30 sec. (168.36 ticks)
Probing fixed 404 vars, tightened 2834 bounds.
Probing time = 3.59 sec. (899.64 ticks)
Tried aggregator 2 times.
MIP Presolve eliminated 914 rows and 809 columns.
MIP Presolve modified 2232 coefficients.
Aggregator did 41 substitutions.
Reduced MIP has 23881 rows, 20332 columns, and 68033 nonzeros.
Reduced MIP has 7978 binaries, 0 generals, 0 SOSs, and 0 indicators.
Presolve time = 0.14 sec. (55.62 ticks)
Probing time = 0.06 sec. (15.78 ticks)
Clique table members: 6452.
MIP emphasis: balance optimality and feasibility.
MIP search method: dynamic search.
Parallel mode: opportunistic, using up to 4 threads.
Root relaxation solution time = 0.64 sec. (574.97 ticks)

        Nodes                                         Cuts/
   Node  Left     Objective  IInf  Best Integer    Best Bound    ItCnt     Gap

      0     0     6979.8773   948                   6979.8773     4007         
      0     0     6939.9020    72                    Cuts: 84     4039         
      0     0     6939.9020    67                    Cuts: 26     4045         
      0     0     6939.9020    65                    Cuts: 19     4047         
      0     0     6939.9020    40                Flowcuts: 16     4049         
Repair heuristic found nothing.
      0     2     6939.9020    34                     Cuts: 4     4049         
Elapsed time = 22.47 sec. (7628.68 ticks, tree = 0.03 MB, solutions = 0)
     94    51     6211.2528    20                   6801.1889     5339         
    160    91     4047.5790    16                   6801.1889     5504         
    224   163     6801.1889     8                   6801.1889     5918         
    292   222     6320.7353     6                   6801.1889     6292         
    341   240    -6836.3191     5                   6801.1889     6514         
*   357   228      integral     0     6801.0126     6801.1889     6932    0.00%
    375   269     6801.1889    21     6801.0126     6801.1889     6954    0.00%

Cover cuts applied:  1
Implied bound cuts applied:  4
Flow cuts applied:  39
Gomory fractional cuts applied:  20

Root node processing (before b&c):
  Real time             =   22.06 sec. (7579.54 ticks)
Parallel b&c, 4 threads:
  Real time             =    2.99 sec. (1733.41 ticks)
  Sync time (average)   =    0.14 sec.
  Wait time (average)   =    0.02 sec.
                          ------------
Total (root+branch&cut) =   25.05 sec. (9312.95 ticks)

Solution pool: 1 solution saved.

MIP - Integer optimal, tolerance (0.01/1e-06):  Objective =  6.8010125634e+03
Current MIP best bound =  6.8011889145e+03 (gap = 0.176351, 0.00%)
Solution time =   25.05 sec.  Iterations = 7271  Nodes = 386 (12)
Deterministic time = 9313.10 ticks  (371.83 ticks/sec)

CPLEX> Incumbent solution written to file 'C:\Users\llavi\Desktop\test919\logs\tmpcxrjghiy.cplex.sol'.
CPLEX> Exporting results... 
